p cnf 960 2463
51 -693 -694 0
-51 693 0
-51 694 0
52 -51 -3 0
-52 51 0
-52 3 0
53 -695 -4 0
-53 695 0
-53 4 0
54 -53 -696 0
-54 53 0
-54 696 0
55 -697 -698 0
-55 697 0
-55 698 0
56 -7 -4 0
-56 7 0
-56 4 0
57 -56 -8 0
-57 56 0
-57 8 0
58 -699 -55 0
-58 699 0
-58 55 0
59 -700 -6 0
-59 700 0
-59 6 0
60 -59 -701 0
-60 59 0
-60 701 0
61 -702 -58 0
-61 702 0
-61 58 0
62 -703 -704 0
-62 703 0
-62 704 0
63 -62 -13 0
-63 62 0
-63 13 0
64 -705 -61 0
-64 705 0
-64 61 0
65 -15 -706 0
-65 15 0
-65 706 0
66 -65 -2 0
-66 65 0
-66 2 0
67 -707 -64 0
-67 707 0
-67 64 0
68 -708 -11 0
-68 708 0
-68 11 0
69 -68 -709 0
-69 68 0
-69 709 0
70 -710 -67 0
-70 710 0
-70 67 0
71 -711 -693 0
-71 711 0
-71 693 0
72 -71 -6 0
-72 71 0
-72 6 0
73 -712 -70 0
-73 712 0
-73 70 0
74 -713 -19 0
-74 713 0
-74 19 0
75 -74 -18 0
-75 74 0
-75 18 0
76 -714 -73 0
-76 714 0
-76 73 0
77 -715 -716 0
-77 715 0
-77 716 0
78 -77 -8 0
-78 77 0
-78 8 0
79 -717 -76 0
-79 717 0
-79 76 0
80 -718 -693 0
-80 718 0
-80 693 0
81 -80 -719 0
-81 80 0
-81 719 0
82 -720 -79 0
-82 720 0
-82 79 0
83 -721 -716 0
-83 721 0
-83 716 0
84 -83 -709 0
-84 83 0
-84 709 0
85 -722 -82 0
-85 722 0
-85 82 0
86 -27 -26 0
-86 27 0
-86 26 0
87 -86 -28 0
-87 86 0
-87 28 0
88 -723 -85 0
-88 723 0
-88 85 0
89 -724 -693 0
-89 724 0
-89 693 0
90 -89 -29 0
-90 89 0
-90 29 0
91 -725 -88 0
-91 725 0
-91 88 0
92 -726 -20 0
-92 726 0
-92 20 0
93 -92 -22 0
-93 92 0
-93 22 0
94 -727 -91 0
-94 727 0
-94 91 0
95 -31 -695 0
-95 31 0
-95 695 0
96 -95 -32 0
-96 95 0
-96 32 0
97 -728 -94 0
-97 728 0
-97 94 0
98 -27 -3 0
-98 27 0
-98 3 0
99 -98 -33 0
-99 98 0
-99 33 0
100 -729 -97 0
-100 729 0
-100 97 0
101 -730 -19 0
-101 730 0
-101 19 0
102 -101 -35 0
-102 101 0
-102 35 0
103 -731 -100 0
-103 731 0
-103 100 0
104 -36 -14 0
-104 36 0
-104 14 0
105 -104 -732 0
-105 104 0
-105 732 0
106 -733 -103 0
-106 733 0
-106 103 0
107 -734 -31 0
-107 734 0
-107 31 0
108 -107 -730 0
-108 107 0
-108 730 0
109 -735 -106 0
-109 735 0
-109 106 0
110 -32 -27 0
-110 32 0
-110 27 0
111 -110 -732 0
-111 110 0
-111 732 0
112 -736 -109 0
-112 736 0
-112 109 0
113 -737 -713 0
-113 737 0
-113 713 0
114 -113 -738 0
-114 113 0
-114 738 0
115 -739 -112 0
-115 739 0
-115 112 0
116 -30 -706 0
-116 30 0
-116 706 0
117 -116 -2 0
-117 116 0
-117 2 0
118 -740 -115 0
-118 740 0
-118 115 0
119 -741 -14 0
-119 741 0
-119 14 0
120 -119 -15 0
-120 119 0
-120 15 0
121 -742 -118 0
-121 742 0
-121 118 0
122 -13 -4 0
-122 13 0
-122 4 0
123 -122 -40 0
-123 122 0
-123 40 0
124 -743 -121 0
-124 743 0
-124 121 0
125 -27 -706 0
-125 27 0
-125 706 0
126 -125 -22 0
-126 125 0
-126 22 0
127 -744 -124 0
-127 744 0
-127 124 0
128 -745 -41 0
-128 745 0
-128 41 0
129 -128 -709 0
-129 128 0
-129 709 0
130 -746 -127 0
-130 746 0
-130 127 0
131 -747 -748 0
-131 747 0
-131 748 0
132 -131 -29 0
-132 131 0
-132 29 0
133 -749 -130 0
-133 749 0
-133 130 0
134 -750 -751 0
-134 750 0
-134 751 0
135 -134 -40 0
-135 134 0
-135 40 0
136 -752 -133 0
-136 752 0
-136 133 0
137 -43 -31 0
-137 43 0
-137 31 0
138 -137 -18 0
-138 137 0
-138 18 0
139 -753 -136 0
-139 753 0
-139 136 0
140 -80 -22 0
-140 80 0
-140 22 0
141 -754 -139 0
-141 754 0
-141 139 0
142 -19 -10 0
-142 19 0
-142 10 0
143 -142 -44 0
-143 142 0
-143 44 0
144 -755 -141 0
-144 755 0
-144 141 0
145 -756 -718 0
-145 756 0
-145 718 0
146 -145 -35 0
-146 145 0
-146 35 0
147 -757 -144 0
-147 757 0
-147 144 0
148 -758 -747 0
-148 758 0
-148 747 0
149 -148 -759 0
-149 148 0
-149 759 0
150 -760 -147 0
-150 760 0
-150 147 0
151 -748 -694 0
-151 748 0
-151 694 0
152 -151 -761 0
-152 151 0
-152 761 0
153 -762 -150 0
-153 762 0
-153 150 0
154 -21 -763 0
-154 21 0
-154 763 0
155 -154 -18 0
-155 154 0
-155 18 0
156 -764 -153 0
-156 764 0
-156 153 0
157 -765 -2 0
-157 765 0
-157 2 0
158 -157 -34 0
-158 157 0
-158 34 0
159 -766 -156 0
-159 766 0
-159 156 0
160 -767 -750 0
-160 767 0
-160 750 0
161 -160 -765 0
-161 160 0
-161 765 0
162 -768 -159 0
-162 768 0
-162 159 0
163 -756 -769 0
-163 756 0
-163 769 0
164 -163 -24 0
-164 163 0
-164 24 0
165 -770 -162 0
-165 770 0
-165 162 0
166 -758 -14 0
-166 758 0
-166 14 0
167 -166 -704 0
-167 166 0
-167 704 0
168 -771 -165 0
-168 771 0
-168 165 0
169 -772 -38 0
-169 772 0
-169 38 0
170 -169 -34 0
-170 169 0
-170 34 0
171 -773 -168 0
-171 773 0
-171 168 0
172 -39 -719 0
-172 39 0
-172 719 0
173 -172 -34 0
-173 172 0
-173 34 0
174 -774 -171 0
-174 774 0
-174 171 0
175 -36 -11 0
-175 36 0
-175 11 0
176 -175 -721 0
-176 175 0
-176 721 0
177 -775 -174 0
-177 775 0
-177 174 0
178 -27 -16 0
-178 27 0
-178 16 0
179 -178 -6 0
-179 178 0
-179 6 0
180 -776 -177 0
-180 776 0
-180 177 0
181 -777 -709 0
-181 777 0
-181 709 0
182 -181 -778 0
-182 181 0
-182 778 0
183 -779 -180 0
-183 779 0
-183 180 0
184 -778 -780 0
-184 778 0
-184 780 0
185 -184 -35 0
-185 184 0
-185 35 0
186 -781 -183 0
-186 781 0
-186 183 0
187 -36 -27 0
-187 36 0
-187 27 0
188 -187 -778 0
-188 187 0
-188 778 0
189 -782 -186 0
-189 782 0
-189 186 0
190 -751 -22 0
-190 751 0
-190 22 0
191 -190 -745 0
-191 190 0
-191 745 0
192 -783 -189 0
-192 783 0
-192 189 0
193 -37 -700 0
-193 37 0
-193 700 0
194 -193 -784 0
-194 193 0
-194 784 0
195 -785 -192 0
-195 785 0
-195 192 0
196 -48 -701 0
-196 48 0
-196 701 0
197 -196 -33 0
-197 196 0
-197 33 0
198 -786 -195 0
-198 786 0
-198 195 0
199 -748 -724 0
-199 748 0
-199 724 0
200 -199 -709 0
-200 199 0
-200 709 0
201 -787 -198 0
-201 787 0
-201 198 0
202 -756 -23 0
-202 756 0
-202 23 0
203 -202 -708 0
-203 202 0
-203 708 0
204 -788 -201 0
-204 788 0
-204 201 0
205 -47 -777 0
-205 47 0
-205 777 0
206 -205 -31 0
-206 205 0
-206 31 0
207 -789 -204 0
-207 789 0
-207 204 0
208 -12 -693 0
-208 12 0
-208 693 0
209 -208 -29 0
-209 208 0
-209 29 0
210 -790 -207 0
-210 790 0
-210 207 0
211 -756 -703 0
-211 756 0
-211 703 0
212 -211 -791 0
-212 211 0
-212 791 0
213 -792 -210 0
-213 792 0
-213 210 0
214 -32 -2 0
-214 32 0
-214 2 0
215 -214 -25 0
-215 214 0
-215 25 0
216 -793 -213 0
-216 793 0
-216 213 0
217 -758 -31 0
-217 758 0
-217 31 0
218 -217 -778 0
-218 217 0
-218 778 0
219 -794 -216 0
-219 794 0
-219 216 0
220 -34 -748 0
-220 34 0
-220 748 0
221 -220 -738 0
-221 220 0
-221 738 0
222 -795 -219 0
-222 795 0
-222 219 0
223 -22 -20 0
-223 22 0
-223 20 0
224 -223 -35 0
-224 223 0
-224 35 0
225 -796 -222 0
-225 796 0
-225 222 0
226 -772 -26 0
-226 772 0
-226 26 0
227 -226 -32 0
-227 226 0
-227 32 0
228 -797 -225 0
-228 797 0
-228 225 0
229 -22 -716 0
-229 22 0
-229 716 0
230 -229 -33 0
-230 229 0
-230 33 0
231 -798 -228 0
-231 798 0
-231 228 0
232 -39 -38 0
-232 39 0
-232 38 0
233 -232 -745 0
-233 232 0
-233 745 0
234 -799 -231 0
-234 799 0
-234 231 0
235 -769 -5 0
-235 769 0
-235 5 0
236 -235 -45 0
-236 235 0
-236 45 0
237 -800 -234 0
-237 800 0
-237 234 0
238 -32 -719 0
-238 32 0
-238 719 0
239 -238 -715 0
-239 238 0
-239 715 0
240 -801 -237 0
-240 801 0
-240 237 0
241 -763 -15 0
-241 763 0
-241 15 0
242 -241 -18 0
-242 241 0
-242 18 0
243 -802 -240 0
-243 802 0
-243 240 0
244 -741 -724 0
-244 741 0
-244 724 0
245 -244 -715 0
-245 244 0
-245 715 0
246 -803 -243 0
-246 803 0
-246 243 0
247 -25 -711 0
-247 25 0
-247 711 0
248 -247 -33 0
-248 247 0
-248 33 0
249 -804 -246 0
-249 804 0
-249 246 0
250 -767 -39 0
-250 767 0
-250 39 0
251 -250 -49 0
-251 250 0
-251 49 0
252 -805 -249 0
-252 805 0
-252 249 0
253 -19 -694 0
-253 19 0
-253 694 0
254 -253 -2 0
-254 253 0
-254 2 0
255 -806 -252 0
-255 806 0
-255 252 0
256 -726 -16 0
-256 726 0
-256 16 0
257 -256 -17 0
-257 256 0
-257 17 0
258 -807 -255 0
-258 807 0
-258 255 0
259 -748 -696 0
-259 748 0
-259 696 0
260 -259 -721 0
-260 259 0
-260 721 0
261 -808 -258 0
-261 808 0
-261 258 0
262 -43 -695 0
-262 43 0
-262 695 0
263 -262 -732 0
-263 262 0
-263 732 0
264 -809 -261 0
-264 809 0
-264 261 0
265 -810 -1 0
-265 810 0
-265 1 0
266 -265 -33 0
-266 265 0
-266 33 0
267 -811 -264 0
-267 811 0
-267 264 0
268 -772 -30 0
-268 772 0
-268 30 0
269 -268 -713 0
-269 268 0
-269 713 0
270 -812 -267 0
-270 812 0
-270 267 0
271 -42 -26 0
-271 42 0
-271 26 0
272 -271 -791 0
-272 271 0
-272 791 0
273 -813 -270 0
-273 813 0
-273 270 0
274 -41 -24 0
-274 41 0
-274 24 0
275 -274 -715 0
-275 274 0
-275 715 0
276 -814 -273 0
-276 814 0
-276 273 0
277 -772 -767 0
-277 772 0
-277 767 0
278 -277 -759 0
-278 277 0
-278 759 0
279 -815 -276 0
-279 815 0
-279 276 0
280 -37 -777 0
-280 37 0
-280 777 0
281 -280 -24 0
-281 280 0
-281 24 0
282 -816 -279 0
-282 816 0
-282 279 0
283 -33 -817 0
-283 33 0
-283 817 0
284 -283 -778 0
-284 283 0
-284 778 0
285 -818 -282 0
-285 818 0
-285 282 0
286 -11 -693 0
-286 11 0
-286 693 0
287 -286 -33 0
-287 286 0
-287 33 0
288 -819 -285 0
-288 819 0
-288 285 0
289 -751 -4 0
-289 751 0
-289 4 0
290 -289 -35 0
-290 289 0
-290 35 0
291 -820 -288 0
-291 820 0
-291 288 0
292 -821 -756 0
-292 821 0
-292 756 0
293 -292 -19 0
-293 292 0
-293 19 0
294 -822 -291 0
-294 822 0
-294 291 0
295 -48 -696 0
-295 48 0
-295 696 0
296 -295 -35 0
-296 295 0
-296 35 0
297 -823 -294 0
-297 823 0
-297 294 0
298 -824 -12 0
-298 824 0
-298 12 0
299 -298 -46 0
-299 298 0
-299 46 0
300 -825 -297 0
-300 825 0
-300 297 0
301 -3 -1 0
-301 3 0
-301 1 0
302 -301 -34 0
-302 301 0
-302 34 0
303 -826 -300 0
-303 826 0
-303 300 0
304 -43 -777 0
-304 43 0
-304 777 0
305 -304 -17 0
-305 304 0
-305 17 0
306 -827 -303 0
-306 827 0
-306 303 0
307 -824 -701 0
-307 824 0
-307 701 0
308 -307 -791 0
-308 307 0
-308 791 0
309 -828 -306 0
-309 828 0
-309 306 0
310 -780 -19 0
-310 780 0
-310 19 0
311 -310 -25 0
-311 310 0
-311 25 0
312 -829 -309 0
-312 829 0
-312 309 0
313 -700 -694 0
-313 700 0
-313 694 0
314 -313 -706 0
-314 313 0
-314 706 0
315 -830 -312 0
-315 830 0
-315 312 0
316 -43 -40 0
-316 43 0
-316 40 0
317 -316 -25 0
-317 316 0
-317 25 0
318 -831 -315 0
-318 831 0
-318 315 0
319 -824 -41 0
-319 824 0
-319 41 0
320 -319 -10 0
-320 319 0
-320 10 0
321 -832 -318 0
-321 832 0
-321 318 0
322 -304 -22 0
-322 304 0
-322 22 0
323 -833 -321 0
-323 833 0
-323 321 0
324 -19 -706 0
-324 19 0
-324 706 0
325 -324 -34 0
-325 324 0
-325 34 0
326 -834 -323 0
-326 834 0
-326 323 0
327 -14 -3 0
-327 14 0
-327 3 0
328 -327 -745 0
-328 327 0
-328 745 0
329 -835 -326 0
-329 835 0
-329 326 0
330 -30 -4 0
-330 30 0
-330 4 0
331 -330 -765 0
-331 330 0
-331 765 0
332 -836 -329 0
-332 836 0
-332 329 0
333 -30 -7 0
-333 30 0
-333 7 0
334 -333 -751 0
-334 333 0
-334 751 0
335 -837 -332 0
-335 837 0
-335 332 0
336 -34 -3 0
-336 34 0
-336 3 0
337 -336 -721 0
-337 336 0
-337 721 0
338 -838 -335 0
-338 838 0
-338 335 0
339 -839 -30 0
-339 839 0
-339 30 0
340 -339 -791 0
-340 339 0
-340 791 0
341 -840 -338 0
-341 840 0
-341 338 0
342 -724 -694 0
-342 724 0
-342 694 0
343 -342 -3 0
-343 342 0
-343 3 0
344 -841 -341 0
-344 841 0
-344 341 0
345 -706 -817 0
-345 706 0
-345 817 0
346 -345 -839 0
-346 345 0
-346 839 0
347 -842 -344 0
-347 842 0
-347 344 0
348 -22 -711 0
-348 22 0
-348 711 0
349 -348 -791 0
-349 348 0
-349 791 0
350 -843 -347 0
-350 843 0
-350 347 0
351 -765 -9 0
-351 765 0
-351 9 0
352 -351 -44 0
-352 351 0
-352 44 0
353 -844 -350 0
-353 844 0
-353 350 0
354 -193 -5 0
-354 193 0
-354 5 0
355 -845 -353 0
-355 845 0
-355 353 0
356 -30 -716 0
-356 30 0
-356 716 0
357 -356 -780 0
-357 356 0
-357 780 0
358 -846 -355 0
-358 846 0
-358 355 0
359 -821 -765 0
-359 821 0
-359 765 0
360 -359 -738 0
-360 359 0
-360 738 0
361 -847 -358 0
-361 847 0
-361 358 0
362 -41 -2 0
-362 41 0
-362 2 0
363 -362 -17 0
-363 362 0
-363 17 0
364 -848 -361 0
-364 848 0
-364 361 0
365 -30 -2 0
-365 30 0
-365 2 0
366 -365 -42 0
-366 365 0
-366 42 0
367 -849 -364 0
-367 849 0
-367 364 0
368 -49 -12 0
-368 49 0
-368 12 0
369 -368 -33 0
-369 368 0
-369 33 0
370 -850 -367 0
-370 850 0
-370 367 0
371 -48 -14 0
-371 48 0
-371 14 0
372 -371 -10 0
-372 371 0
-372 10 0
373 -851 -370 0
-373 851 0
-373 370 0
374 -780 -777 0
-374 780 0
-374 777 0
375 -374 -34 0
-375 374 0
-375 34 0
376 -852 -373 0
-376 852 0
-376 373 0
377 -238 -25 0
-377 238 0
-377 25 0
378 -853 -376 0
-378 853 0
-378 376 0
379 -40 -4 0
-379 40 0
-379 4 0
380 -379 -810 0
-380 379 0
-380 810 0
381 -854 -378 0
-381 854 0
-381 378 0
382 -741 -2 0
-382 741 0
-382 2 0
383 -382 -708 0
-383 382 0
-383 708 0
384 -855 -381 0
-384 855 0
-384 381 0
385 -22 -706 0
-385 22 0
-385 706 0
386 -385 -778 0
-386 385 0
-386 778 0
387 -856 -384 0
-387 856 0
-387 384 0
388 -31 -716 0
-388 31 0
-388 716 0
389 -388 -693 0
-389 388 0
-389 693 0
390 -857 -387 0
-390 857 0
-390 387 0
391 -758 -780 0
-391 758 0
-391 780 0
392 -391 -39 0
-392 391 0
-392 39 0
393 -858 -390 0
-393 858 0
-393 390 0
394 -715 -763 0
-394 715 0
-394 763 0
395 -394 -49 0
-395 394 0
-395 49 0
396 -859 -393 0
-396 859 0
-396 393 0
397 -9 -1 0
-397 9 0
-397 1 0
398 -397 -704 0
-398 397 0
-398 704 0
399 -860 -396 0
-399 860 0
-399 396 0
400 -734 -765 0
-400 734 0
-400 765 0
401 -400 -46 0
-401 400 0
-401 46 0
402 -861 -399 0
-402 861 0
-402 399 0
403 -23 -19 0
-403 23 0
-403 19 0
404 -403 -31 0
-404 403 0
-404 31 0
405 -862 -402 0
-405 862 0
-405 402 0
406 -758 -18 0
-406 758 0
-406 18 0
407 -406 -778 0
-407 406 0
-407 778 0
408 -863 -405 0
-408 863 0
-408 405 0
409 -199 -839 0
-409 199 0
-409 839 0
410 -864 -408 0
-410 864 0
-410 408 0
411 -747 -4 0
-411 747 0
-411 4 0
412 -411 -759 0
-412 411 0
-412 759 0
413 -865 -410 0
-413 865 0
-413 410 0
414 -23 -763 0
-414 23 0
-414 763 0
415 -414 -33 0
-415 414 0
-415 33 0
416 -866 -413 0
-416 866 0
-416 413 0
417 -839 -718 0
-417 839 0
-417 718 0
418 -417 -778 0
-418 417 0
-418 778 0
419 -867 -416 0
-419 867 0
-419 416 0
420 -716 -19 0
-420 716 0
-420 19 0
421 -420 -726 0
-421 420 0
-421 726 0
422 -868 -419 0
-422 868 0
-422 419 0
423 -824 -695 0
-423 824 0
-423 695 0
424 -423 -34 0
-424 423 0
-424 34 0
425 -869 -422 0
-425 869 0
-425 422 0
426 -765 -721 0
-426 765 0
-426 721 0
427 -426 -732 0
-427 426 0
-427 732 0
428 -870 -425 0
-428 870 0
-428 425 0
429 -708 -694 0
-429 708 0
-429 694 0
430 -429 -38 0
-430 429 0
-430 38 0
431 -871 -428 0
-431 871 0
-431 428 0
432 -718 -696 0
-432 718 0
-432 696 0
433 -432 -701 0
-433 432 0
-433 701 0
434 -872 -431 0
-434 872 0
-434 431 0
435 -30 -14 0
-435 30 0
-435 14 0
436 -435 -50 0
-436 435 0
-436 50 0
437 -873 -434 0
-437 873 0
-437 434 0
438 -734 -769 0
-438 734 0
-438 769 0
439 -438 -824 0
-439 438 0
-439 824 0
440 -874 -437 0
-440 874 0
-440 437 0
441 -27 -718 0
-441 27 0
-441 718 0
442 -441 -780 0
-442 441 0
-442 780 0
443 -875 -440 0
-443 875 0
-443 440 0
444 -48 -16 0
-444 48 0
-444 16 0
445 -444 -715 0
-445 444 0
-445 715 0
446 -876 -443 0
-446 876 0
-446 443 0
447 -43 -716 0
-447 43 0
-447 716 0
448 -447 -32 0
-448 447 0
-448 32 0
449 -877 -446 0
-449 877 0
-449 446 0
450 -715 -700 0
-450 715 0
-450 700 0
451 -450 -49 0
-451 450 0
-451 49 0
452 -878 -449 0
-452 878 0
-452 449 0
453 -734 -777 0
-453 734 0
-453 777 0
454 -453 -810 0
-454 453 0
-454 810 0
455 -879 -452 0
-455 879 0
-455 452 0
456 -703 -1 0
-456 703 0
-456 1 0
457 -456 -711 0
-457 456 0
-457 711 0
458 -880 -455 0
-458 880 0
-458 455 0
459 -726 -713 0
-459 726 0
-459 713 0
460 -459 -45 0
-460 459 0
-460 45 0
461 -881 -458 0
-461 881 0
-461 458 0
462 -767 -780 0
-462 767 0
-462 780 0
463 -462 -17 0
-463 462 0
-463 17 0
464 -882 -461 0
-464 882 0
-464 461 0
465 -30 -777 0
-465 30 0
-465 777 0
466 -465 -45 0
-466 465 0
-466 45 0
467 -883 -464 0
-467 883 0
-467 464 0
468 -48 -734 0
-468 48 0
-468 734 0
469 -468 -3 0
-469 468 0
-469 3 0
470 -884 -467 0
-470 884 0
-470 467 0
471 -43 -748 0
-471 43 0
-471 748 0
472 -471 -44 0
-472 471 0
-472 44 0
473 -885 -470 0
-473 885 0
-473 470 0
474 -26 -696 0
-474 26 0
-474 696 0
475 -474 -732 0
-475 474 0
-475 732 0
476 -886 -473 0
-476 886 0
-476 473 0
477 -750 -695 0
-477 750 0
-477 695 0
478 -477 -778 0
-478 477 0
-478 778 0
479 -887 -476 0
-479 887 0
-479 476 0
480 -718 -716 0
-480 718 0
-480 716 0
481 -480 -751 0
-481 480 0
-481 751 0
482 -888 -479 0
-482 888 0
-482 479 0
483 -11 -1 0
-483 11 0
-483 1 0
484 -483 -703 0
-484 483 0
-484 703 0
485 -889 -482 0
-485 889 0
-485 482 0
486 -48 -5 0
-486 48 0
-486 5 0
487 -486 -810 0
-487 486 0
-487 810 0
488 -890 -485 0
-488 890 0
-488 485 0
489 -713 -16 0
-489 713 0
-489 16 0
490 -489 -745 0
-490 489 0
-490 745 0
491 -891 -488 0
-491 891 0
-491 488 0
492 -784 -745 0
-492 784 0
-492 745 0
493 -492 -709 0
-493 492 0
-493 709 0
494 -892 -491 0
-494 892 0
-494 491 0
495 -7 -3 0
-495 7 0
-495 3 0
496 -495 -759 0
-496 495 0
-496 759 0
497 -893 -494 0
-497 893 0
-497 494 0
498 -767 -751 0
-498 767 0
-498 751 0
499 -498 -839 0
-499 498 0
-499 839 0
500 -894 -497 0
-500 894 0
-500 497 0
501 -706 -13 0
-501 706 0
-501 13 0
502 -501 -791 0
-502 501 0
-502 791 0
503 -895 -500 0
-503 895 0
-503 500 0
504 -28 -719 0
-504 28 0
-504 719 0
505 -504 -730 0
-505 504 0
-505 730 0
506 -896 -503 0
-506 896 0
-506 503 0
507 -718 -9 0
-507 718 0
-507 9 0
508 -507 -15 0
-508 507 0
-508 15 0
509 -897 -506 0
-509 897 0
-509 506 0
510 -777 -2 0
-510 777 0
-510 2 0
511 -510 -709 0
-511 510 0
-511 709 0
512 -898 -509 0
-512 898 0
-512 509 0
513 -772 -3 0
-513 772 0
-513 3 0
514 -513 -42 0
-514 513 0
-514 42 0
515 -899 -512 0
-515 899 0
-515 512 0
516 -11 -724 0
-516 11 0
-516 724 0
517 -516 -751 0
-517 516 0
-517 751 0
518 -900 -515 0
-518 900 0
-518 515 0
519 -734 -18 0
-519 734 0
-519 18 0
520 -519 -719 0
-520 519 0
-520 719 0
521 -901 -518 0
-521 901 0
-521 518 0
522 -319 -778 0
-522 319 0
-522 778 0
523 -902 -521 0
-523 902 0
-523 521 0
524 -748 -5 0
-524 748 0
-524 5 0
525 -524 -810 0
-525 524 0
-525 810 0
526 -903 -523 0
-526 903 0
-526 523 0
527 -703 -695 0
-527 703 0
-527 695 0
528 -527 -24 0
-528 527 0
-528 24 0
529 -904 -526 0
-529 904 0
-529 526 0
530 -21 -704 0
-530 21 0
-530 704 0
531 -530 -708 0
-531 530 0
-531 708 0
532 -905 -529 0
-532 905 0
-532 529 0
533 -28 -27 0
-533 28 0
-533 27 0
534 -533 -17 0
-534 533 0
-534 17 0
535 -906 -532 0
-535 906 0
-535 532 0
536 -48 -715 0
-536 48 0
-536 715 0
537 -536 -35 0
-537 536 0
-537 35 0
538 -907 -535 0
-538 907 0
-538 535 0
539 -27 -817 0
-539 27 0
-539 817 0
540 -539 -8 0
-540 539 0
-540 8 0
541 -908 -538 0
-541 908 0
-541 538 0
542 -39 -13 0
-542 39 0
-542 13 0
543 -542 -721 0
-543 542 0
-543 721 0
544 -909 -541 0
-544 909 0
-544 541 0
545 -41 -713 0
-545 41 0
-545 713 0
546 -545 -784 0
-546 545 0
-546 784 0
547 -910 -544 0
-547 910 0
-547 544 0
548 -772 -737 0
-548 772 0
-548 737 0
549 -548 -35 0
-549 548 0
-549 35 0
550 -911 -547 0
-550 911 0
-550 547 0
551 -41 -17 0
-551 41 0
-551 17 0
552 -551 -35 0
-552 551 0
-552 35 0
553 -912 -550 0
-553 912 0
-553 550 0
554 -43 -715 0
-554 43 0
-554 715 0
555 -554 -721 0
-555 554 0
-555 721 0
556 -913 -553 0
-556 913 0
-556 553 0
557 -839 -27 0
-557 839 0
-557 27 0
558 -557 -42 0
-558 557 0
-558 42 0
559 -914 -556 0
-559 914 0
-559 556 0
560 -37 -19 0
-560 37 0
-560 19 0
561 -560 -33 0
-561 560 0
-561 33 0
562 -915 -559 0
-562 915 0
-562 559 0
563 -758 -713 0
-563 758 0
-563 713 0
564 -563 -791 0
-564 563 0
-564 791 0
565 -916 -562 0
-565 916 0
-565 562 0
566 -26 -718 0
-566 26 0
-566 718 0
567 -566 -46 0
-567 566 0
-567 46 0
568 -917 -565 0
-568 917 0
-568 565 0
569 -50 -839 0
-569 50 0
-569 839 0
570 -569 -791 0
-570 569 0
-570 791 0
571 -918 -568 0
-571 918 0
-571 568 0
572 -47 -24 0
-572 47 0
-572 24 0
573 -572 -730 0
-573 572 0
-573 730 0
574 -919 -571 0
-574 919 0
-574 571 0
575 -36 -713 0
-575 36 0
-575 713 0
576 -575 -703 0
-576 575 0
-576 703 0
577 -920 -574 0
-577 920 0
-577 574 0
578 -700 -5 0
-578 700 0
-578 5 0
579 -578 -778 0
-579 578 0
-579 778 0
580 -921 -577 0
-580 921 0
-580 577 0
581 -751 -817 0
-581 751 0
-581 817 0
582 -581 -10 0
-582 581 0
-582 10 0
583 -922 -580 0
-583 922 0
-583 580 0
584 -821 -27 0
-584 821 0
-584 27 0
585 -584 -33 0
-585 584 0
-585 33 0
586 -923 -583 0
-586 923 0
-586 583 0
587 -29 -747 0
-587 29 0
-587 747 0
588 -587 -46 0
-588 587 0
-588 46 0
589 -924 -586 0
-589 924 0
-589 586 0
590 -824 -9 0
-590 824 0
-590 9 0
591 -590 -35 0
-591 590 0
-591 35 0
592 -925 -589 0
-592 925 0
-592 589 0
593 -453 -7 0
-593 453 0
-593 7 0
594 -926 -592 0
-594 926 0
-594 592 0
595 -50 -34 0
-595 50 0
-595 34 0
596 -595 -732 0
-596 595 0
-596 732 0
597 -927 -594 0
-597 927 0
-597 594 0
598 -19 -18 0
-598 19 0
-598 18 0
599 -598 -8 0
-599 598 0
-599 8 0
600 -928 -597 0
-600 928 0
-600 597 0
601 -716 -817 0
-601 716 0
-601 817 0
602 -601 -17 0
-602 601 0
-602 17 0
603 -929 -600 0
-603 929 0
-603 600 0
604 -734 -703 0
-604 734 0
-604 703 0
605 -604 -32 0
-605 604 0
-605 32 0
606 -930 -603 0
-606 930 0
-606 603 0
607 -211 -24 0
-607 211 0
-607 24 0
608 -931 -606 0
-608 931 0
-608 606 0
609 -42 -6 0
-609 42 0
-609 6 0
610 -609 -709 0
-610 609 0
-610 709 0
611 -932 -608 0
-611 932 0
-611 608 0
612 -741 -5 0
-612 741 0
-612 5 0
613 -612 -45 0
-613 612 0
-613 45 0
614 -933 -611 0
-614 933 0
-614 611 0
615 -226 -3 0
-615 226 0
-615 3 0
616 -934 -614 0
-616 934 0
-616 614 0
617 -824 -724 0
-617 824 0
-617 724 0
618 -617 -732 0
-618 617 0
-618 732 0
619 -935 -616 0
-619 935 0
-619 616 0
620 -780 -10 0
-620 780 0
-620 10 0
621 -620 -44 0
-621 620 0
-621 44 0
622 -936 -619 0
-622 936 0
-622 619 0
623 -715 -708 0
-623 715 0
-623 708 0
624 -623 -761 0
-624 623 0
-624 761 0
625 -937 -622 0
-625 937 0
-625 622 0
626 -8 -2 0
-626 8 0
-626 2 0
627 -626 -49 0
-627 626 0
-627 49 0
628 -938 -625 0
-628 938 0
-628 625 0
629 -700 -1 0
-629 700 0
-629 1 0
630 -629 -24 0
-630 629 0
-630 24 0
631 -939 -628 0
-631 939 0
-631 628 0
632 -772 -724 0
-632 772 0
-632 724 0
633 -632 -17 0
-633 632 0
-633 17 0
634 -940 -631 0
-634 940 0
-634 631 0
635 -769 -4 0
-635 769 0
-635 4 0
636 -635 -18 0
-636 635 0
-636 18 0
637 -941 -634 0
-637 941 0
-637 634 0
638 -48 -15 0
-638 48 0
-638 15 0
639 -638 -45 0
-639 638 0
-639 45 0
640 -942 -637 0
-640 942 0
-640 637 0
641 -751 -703 0
-641 751 0
-641 703 0
642 -641 -696 0
-642 641 0
-642 696 0
643 -943 -640 0
-643 943 0
-643 640 0
644 -824 -13 0
-644 824 0
-644 13 0
645 -644 -715 0
-645 644 0
-645 715 0
646 -944 -643 0
-646 944 0
-646 643 0
647 -26 -738 0
-647 26 0
-647 738 0
648 -647 -791 0
-648 647 0
-648 791 0
649 -945 -646 0
-649 945 0
-649 646 0
650 -824 -718 0
-650 824 0
-650 718 0
651 -650 -45 0
-651 650 0
-651 45 0
652 -946 -649 0
-652 946 0
-652 649 0
653 -4 -1 0
-653 4 0
-653 1 0
654 -653 -721 0
-654 653 0
-654 721 0
655 -947 -652 0
-655 947 0
-655 652 0
656 -31 -724 0
-656 31 0
-656 724 0
657 -656 -5 0
-657 656 0
-657 5 0
658 -948 -655 0
-658 948 0
-658 655 0
659 -403 -777 0
-659 403 0
-659 777 0
660 -949 -658 0
-660 949 0
-660 658 0
661 -41 -716 0
-661 41 0
-661 716 0
662 -661 -751 0
-662 661 0
-662 751 0
663 -950 -660 0
-663 950 0
-663 660 0
664 -741 -21 0
-664 741 0
-664 21 0
665 -664 -16 0
-665 664 0
-665 16 0
666 -951 -663 0
-666 951 0
-666 663 0
667 -26 -2 0
-667 26 0
-667 2 0
668 -667 -765 0
-668 667 0
-668 765 0
669 -952 -666 0
-669 952 0
-669 666 0
670 -821 -30 0
-670 821 0
-670 30 0
671 -670 -704 0
-671 670 0
-671 704 0
672 -953 -669 0
-672 953 0
-672 669 0
673 -713 -708 0
-673 713 0
-673 708 0
674 -673 -778 0
-674 673 0
-674 778 0
675 -954 -672 0
-675 954 0
-675 672 0
676 -711 -11 0
-676 711 0
-676 11 0
677 -676 -719 0
-677 676 0
-677 719 0
678 -955 -675 0
-678 955 0
-678 675 0
679 -763 -817 0
-679 763 0
-679 817 0
680 -679 -38 0
-680 679 0
-680 38 0
681 -956 -678 0
-681 956 0
-681 678 0
682 -780 -3 0
-682 780 0
-682 3 0
683 -682 -703 0
-683 682 0
-683 703 0
684 -957 -681 0
-684 957 0
-684 681 0
685 -726 -777 0
-685 726 0
-685 777 0
686 -685 -15 0
-686 685 0
-686 15 0
687 -958 -684 0
-687 958 0
-687 684 0
688 -741 -748 0
-688 741 0
-688 748 0
689 -688 -45 0
-689 688 0
-689 45 0
690 -959 -687 0
-690 959 0
-690 687 0
691 -673 -709 0
-691 673 0
-691 709 0
692 -960 -690 0
-692 960 0
-692 690 0
-693 -2 0
693 2 0
-694 -1 0
694 1 0
-695 -5 0
695 5 0
-696 -6 0
696 6 0
-697 -54 0
697 54 0
-698 -52 0
698 52 0
-699 -57 0
699 57 0
-700 -9 0
700 9 0
-701 -10 0
701 10 0
-702 -60 0
702 60 0
-703 -12 0
703 12 0
-704 -11 0
704 11 0
-705 -63 0
705 63 0
-706 -14 0
706 14 0
-707 -66 0
707 66 0
-708 -16 0
708 16 0
-709 -17 0
709 17 0
-710 -69 0
710 69 0
-711 -18 0
711 18 0
-712 -72 0
712 72 0
-713 -20 0
713 20 0
-714 -75 0
714 75 0
-715 -22 0
715 22 0
-716 -21 0
716 21 0
-717 -78 0
717 78 0
-718 -23 0
718 23 0
-719 -24 0
719 24 0
-720 -81 0
720 81 0
-721 -25 0
721 25 0
-722 -84 0
722 84 0
-723 -87 0
723 87 0
-724 -4 0
724 4 0
-725 -90 0
725 90 0
-726 -30 0
726 30 0
-727 -93 0
727 93 0
-728 -96 0
728 96 0
-729 -99 0
729 99 0
-730 -34 0
730 34 0
-731 -102 0
731 102 0
-732 -33 0
732 33 0
-733 -105 0
733 105 0
-734 -37 0
734 37 0
-735 -108 0
735 108 0
-736 -111 0
736 111 0
-737 -38 0
737 38 0
-738 -8 0
738 8 0
-739 -114 0
739 114 0
-740 -117 0
740 117 0
-741 -39 0
741 39 0
-742 -120 0
742 120 0
-743 -123 0
743 123 0
-744 -126 0
744 126 0
-745 -42 0
745 42 0
-746 -129 0
746 129 0
-747 -13 0
747 13 0
-748 -7 0
748 7 0
-749 -132 0
749 132 0
-750 -41 0
750 41 0
-751 -28 0
751 28 0
-752 -135 0
752 135 0
-753 -138 0
753 138 0
-754 -140 0
754 140 0
-755 -143 0
755 143 0
-756 -26 0
756 26 0
-757 -146 0
757 146 0
-758 -36 0
758 36 0
-759 -45 0
759 45 0
-760 -149 0
760 149 0
-761 -46 0
761 46 0
-762 -152 0
762 152 0
-763 -19 0
763 19 0
-764 -155 0
764 155 0
-765 -29 0
765 29 0
-766 -158 0
766 158 0
-767 -47 0
767 47 0
-768 -161 0
768 161 0
-769 -15 0
769 15 0
-770 -164 0
770 164 0
-771 -167 0
771 167 0
-772 -48 0
772 48 0
-773 -170 0
773 170 0
-774 -173 0
774 173 0
-775 -176 0
775 176 0
-776 -179 0
776 179 0
-777 -27 0
777 27 0
-778 -44 0
778 44 0
-779 -182 0
779 182 0
-780 -31 0
780 31 0
-781 -185 0
781 185 0
-782 -188 0
782 188 0
-783 -191 0
783 191 0
-784 -49 0
784 49 0
-785 -194 0
785 194 0
-786 -197 0
786 197 0
-787 -200 0
787 200 0
-788 -203 0
788 203 0
-789 -206 0
789 206 0
-790 -209 0
790 209 0
-791 -35 0
791 35 0
-792 -212 0
792 212 0
-793 -215 0
793 215 0
-794 -218 0
794 218 0
-795 -221 0
795 221 0
-796 -224 0
796 224 0
-797 -227 0
797 227 0
-798 -230 0
798 230 0
-799 -233 0
799 233 0
-800 -236 0
800 236 0
-801 -239 0
801 239 0
-802 -242 0
802 242 0
-803 -245 0
803 245 0
-804 -248 0
804 248 0
-805 -251 0
805 251 0
-806 -254 0
806 254 0
-807 -257 0
807 257 0
-808 -260 0
808 260 0
-809 -263 0
809 263 0
-810 -32 0
810 32 0
-811 -266 0
811 266 0
-812 -269 0
812 269 0
-813 -272 0
813 272 0
-814 -275 0
814 275 0
-815 -278 0
815 278 0
-816 -281 0
816 281 0
-817 -3 0
817 3 0
-818 -284 0
818 284 0
-819 -287 0
819 287 0
-820 -290 0
820 290 0
-821 -43 0
821 43 0
-822 -293 0
822 293 0
-823 -296 0
823 296 0
-824 -50 0
824 50 0
-825 -299 0
825 299 0
-826 -302 0
826 302 0
-827 -305 0
827 305 0
-828 -308 0
828 308 0
-829 -311 0
829 311 0
-830 -314 0
830 314 0
-831 -317 0
831 317 0
-832 -320 0
832 320 0
-833 -322 0
833 322 0
-834 -325 0
834 325 0
-835 -328 0
835 328 0
-836 -331 0
836 331 0
-837 -334 0
837 334 0
-838 -337 0
838 337 0
-839 -40 0
839 40 0
-840 -340 0
840 340 0
-841 -343 0
841 343 0
-842 -346 0
842 346 0
-843 -349 0
843 349 0
-844 -352 0
844 352 0
-845 -354 0
845 354 0
-846 -357 0
846 357 0
-847 -360 0
847 360 0
-848 -363 0
848 363 0
-849 -366 0
849 366 0
-850 -369 0
850 369 0
-851 -372 0
851 372 0
-852 -375 0
852 375 0
-853 -377 0
853 377 0
-854 -380 0
854 380 0
-855 -383 0
855 383 0
-856 -386 0
856 386 0
-857 -389 0
857 389 0
-858 -392 0
858 392 0
-859 -395 0
859 395 0
-860 -398 0
860 398 0
-861 -401 0
861 401 0
-862 -404 0
862 404 0
-863 -407 0
863 407 0
-864 -409 0
864 409 0
-865 -412 0
865 412 0
-866 -415 0
866 415 0
-867 -418 0
867 418 0
-868 -421 0
868 421 0
-869 -424 0
869 424 0
-870 -427 0
870 427 0
-871 -430 0
871 430 0
-872 -433 0
872 433 0
-873 -436 0
873 436 0
-874 -439 0
874 439 0
-875 -442 0
875 442 0
-876 -445 0
876 445 0
-877 -448 0
877 448 0
-878 -451 0
878 451 0
-879 -454 0
879 454 0
-880 -457 0
880 457 0
-881 -460 0
881 460 0
-882 -463 0
882 463 0
-883 -466 0
883 466 0
-884 -469 0
884 469 0
-885 -472 0
885 472 0
-886 -475 0
886 475 0
-887 -478 0
887 478 0
-888 -481 0
888 481 0
-889 -484 0
889 484 0
-890 -487 0
890 487 0
-891 -490 0
891 490 0
-892 -493 0
892 493 0
-893 -496 0
893 496 0
-894 -499 0
894 499 0
-895 -502 0
895 502 0
-896 -505 0
896 505 0
-897 -508 0
897 508 0
-898 -511 0
898 511 0
-899 -514 0
899 514 0
-900 -517 0
900 517 0
-901 -520 0
901 520 0
-902 -522 0
902 522 0
-903 -525 0
903 525 0
-904 -528 0
904 528 0
-905 -531 0
905 531 0
-906 -534 0
906 534 0
-907 -537 0
907 537 0
-908 -540 0
908 540 0
-909 -543 0
909 543 0
-910 -546 0
910 546 0
-911 -549 0
911 549 0
-912 -552 0
912 552 0
-913 -555 0
913 555 0
-914 -558 0
914 558 0
-915 -561 0
915 561 0
-916 -564 0
916 564 0
-917 -567 0
917 567 0
-918 -570 0
918 570 0
-919 -573 0
919 573 0
-920 -576 0
920 576 0
-921 -579 0
921 579 0
-922 -582 0
922 582 0
-923 -585 0
923 585 0
-924 -588 0
924 588 0
-925 -591 0
925 591 0
-926 -593 0
926 593 0
-927 -596 0
927 596 0
-928 -599 0
928 599 0
-929 -602 0
929 602 0
-930 -605 0
930 605 0
-931 -607 0
931 607 0
-932 -610 0
932 610 0
-933 -613 0
933 613 0
-934 -615 0
934 615 0
-935 -618 0
935 618 0
-936 -621 0
936 621 0
-937 -624 0
937 624 0
-938 -627 0
938 627 0
-939 -630 0
939 630 0
-940 -633 0
940 633 0
-941 -636 0
941 636 0
-942 -639 0
942 639 0
-943 -642 0
943 642 0
-944 -645 0
944 645 0
-945 -648 0
945 648 0
-946 -651 0
946 651 0
-947 -654 0
947 654 0
-948 -657 0
948 657 0
-949 -659 0
949 659 0
-950 -662 0
950 662 0
-951 -665 0
951 665 0
-952 -668 0
952 668 0
-953 -671 0
953 671 0
-954 -674 0
954 674 0
-955 -677 0
955 677 0
-956 -680 0
956 680 0
-957 -683 0
957 683 0
-958 -686 0
958 686 0
-959 -689 0
959 689 0
-960 -691 0
960 691 0
692 0
